(declare-fun var0 () String)
(assert (RegexIn var0 (RegexConcat (RegexUnion (RegexUnion (Str2Reg "777") (Str2Reg "888")) (RegexPlus (Str2Reg "99"))) (RegexConcat (RegexPlus (RegexStar (Str2Reg "66"))) (RegexConcat (RegexStar (RegexPlus (Str2Reg "5"))) (RegexConcat (RegexPlus (RegexPlus (Str2Reg "444"))) (RegexConcat (RegexPlus (RegexPlus (Str2Reg "3"))) (RegexConcat (RegexUnion (RegexUnion (Str2Reg "0") (Str2Reg "111")) (RegexPlus (Str2Reg "2"))) (RegexConcat (RegexPlus (RegexUnion (Str2Reg "}}}") (Str2Reg "~"))) (RegexConcat (RegexPlus (RegexUnion (Str2Reg "{") (Str2Reg "|"))) (RegexConcat (RegexPlus (RegexPlus (Str2Reg "`"))) (RegexConcat (RegexUnion (RegexUnion (Str2Reg "]]") (Str2Reg "^")) (RegexPlus (Str2Reg "_"))) (RegexConcat (RegexStar (RegexPlus (Str2Reg "\\"))) (RegexConcat (RegexPlus (RegexUnion (Str2Reg "@") (Str2Reg "[[["))) (RegexConcat (RegexPlus (RegexPlus (Str2Reg "??"))) (RegexConcat (RegexPlus (RegexPlus (Str2Reg ">"))) (RegexConcat (RegexPlus (RegexStar (Str2Reg "="))) (RegexConcat (RegexUnion (RegexPlus (Str2Reg ":")) (RegexUnion (Str2Reg ";") (Str2Reg "<"))) (RegexConcat (RegexStar (RegexUnion (Str2Reg "...") (Str2Reg "///"))) (RegexConcat (RegexUnion (RegexUnion (Str2Reg "+++") (Str2Reg ",")) (RegexStar (Str2Reg "--"))) (RegexConcat (RegexStar (RegexStar (Str2Reg "***"))) (RegexConcat (RegexPlus (RegexPlus (Str2Reg "))"))) (RegexConcat (RegexUnion (RegexUnion (Str2Reg "&&&") (Str2Reg "''")) (RegexPlus (Str2Reg "("))) (RegexConcat (RegexUnion (RegexUnion (Str2Reg "#") (Str2Reg "$$")) (RegexPlus (Str2Reg "%%%"))) (RegexConcat (RegexStar (RegexUnion (Str2Reg "!!!") (Str2Reg "\"\""))) (RegexConcat (RegexPlus (RegexStar (Str2Reg "ZZZ"))) (RegexConcat (RegexStar (RegexStar (Str2Reg "YYY"))) (RegexConcat (RegexPlus (RegexStar (Str2Reg "XXX"))) (RegexConcat (RegexStar (RegexStar (Str2Reg "WWW"))) (RegexConcat (RegexUnion (RegexUnion (Str2Reg "T") (Str2Reg "U")) (RegexStar (Str2Reg "V"))) (RegexConcat (RegexUnion (RegexUnion (Str2Reg "Q") (Str2Reg "R")) (RegexStar (Str2Reg "S"))) (RegexConcat (RegexStar (RegexUnion (Str2Reg "OOO") (Str2Reg "PP"))) (RegexConcat (RegexPlus (RegexStar (Str2Reg "NN"))) (RegexConcat (RegexUnion (RegexStar (Str2Reg "LL")) (RegexPlus (Str2Reg "M"))) (RegexConcat (RegexPlus (RegexPlus (Str2Reg "KK"))) (RegexConcat (RegexUnion (RegexStar (Str2Reg "HHH")) (RegexUnion (Str2Reg "III") (Str2Reg "JJ"))) (RegexConcat (RegexUnion (RegexPlus (Str2Reg "EEE")) (RegexUnion (Str2Reg "F") (Str2Reg "G"))) (RegexConcat (RegexStar (RegexUnion (Str2Reg "CC") (Str2Reg "D"))) (RegexConcat (RegexPlus (RegexUnion (Str2Reg "AA") (Str2Reg "B"))) (RegexConcat (RegexUnion (RegexUnion (Str2Reg "www") (Str2Reg "xx")) (RegexUnion (Str2Reg "yyy") (Str2Reg "zz"))) (RegexConcat (RegexStar (RegexPlus (Str2Reg "vv"))) (RegexConcat (RegexUnion (RegexPlus (Str2Reg "t")) (RegexStar (Str2Reg "uu"))) (RegexConcat (RegexPlus (RegexStar (Str2Reg "sss"))) (RegexConcat (RegexUnion (RegexPlus (Str2Reg "q")) (RegexStar (Str2Reg "r"))) (RegexConcat (RegexPlus (RegexStar (Str2Reg "pp"))) (RegexConcat (RegexStar (RegexStar (Str2Reg "o"))) (RegexConcat (RegexPlus (RegexUnion (Str2Reg "mm") (Str2Reg "nn"))) (RegexConcat (RegexUnion (RegexUnion (Str2Reg "jjj") (Str2Reg "kk")) (RegexPlus (Str2Reg "l"))) (RegexConcat (RegexStar (RegexPlus (Str2Reg "ii"))) (RegexConcat (RegexStar (RegexStar (Str2Reg "h"))) (RegexConcat (RegexStar (RegexUnion (Str2Reg "f") (Str2Reg "ggg"))) (RegexConcat (RegexUnion (RegexUnion (Str2Reg "ccc") (Str2Reg "dd")) (RegexPlus (Str2Reg "e"))) (RegexConcat (RegexPlus (RegexPlus (Str2Reg "b"))) (RegexConcat (RegexUnion (RegexStar (Str2Reg "999")) (RegexStar (Str2Reg "aaa"))) (RegexConcat (RegexPlus (RegexStar (Str2Reg "8"))) (RegexConcat (RegexStar (RegexStar (Str2Reg "7"))) (RegexConcat (RegexUnion (RegexStar (Str2Reg "5")) (RegexPlus (Str2Reg "66"))) (RegexConcat (RegexPlus (RegexStar (Str2Reg "444"))) (RegexConcat (RegexPlus (RegexPlus (Str2Reg "333"))) (RegexConcat (RegexStar (RegexUnion (Str2Reg "111") (Str2Reg "22"))) (RegexStar (RegexPlus (Str2Reg "0")))))))))))))))))))))))))))))))))))))))))))))))))))))))))))))))
(check-sat)